3 
4 
5  22 38 53 
6  08 24 34 39 44 49 54 59 
7  04 09 14 19 24 29 34 39 44 49 54 59 
8  04 09 14 19 24 29 34 39 44 49 54 59 
9  04 09 14 19 24 29 34 39 44 49 55 
10  01 09 16 24 31 39 46 54 
11  01 09 16 24 31 39 46 54 
12  01 09 16 24 31 39 46 54 
13  01 11 18 26 33 40 48 56 
14  03 11 18 26 33 40 48 56 
15  03 11 16 21 25 31 36 41 46 51 55 
16  01 06 10 16 21 25 31 36 40 46 51 55 
17  01 06 10 16 21 25 31 36 40 46 51 55 
18  01 06 11 16 21 26 31 36 41 46 51 56 
19  01 05 11 17 24 31 39 46 54 
20  01 09 15 22 30 38 45 56 
21  11 18 26 41 56 
22  11 21 36 51 
23  07 21 
0 
